p edge 754 895
e 1 2
e 1 3
e 2 221
e 2 272
e 3 684
e 4 5
e 4 6
e 5 10
e 6 219
e 7 8
e 7 9
e 8 11
e 9 599
e 10 221
e 11 51
e 12 13
e 12 14
e 13 487
e 14 15
e 14 338
e 14 745
e 15 16
e 16 482
e 17 18
e 17 19
e 18 348
e 19 208
e 19 401
e 19 405
e 19 657
e 19 360
e 20 21
e 20 22
e 21 23
e 22 605
e 23 385
e 24 25
e 24 26
e 25 27
e 26 443
e 27 31
e 28 29
e 28 30
e 29 144
e 30 115
e 31 32
e 32 33
e 33 34
e 34 35
e 34 36
e 34 37
e 35 38
e 36 485
e 36 443
e 37 744
e 38 339
e 39 40
e 39 41
e 39 42
e 39 43
e 40 98
e 41 44
e 42 141
e 42 513
e 43 59
e 43 644
e 43 645
e 44 45
e 45 307
e 46 47
e 46 48
e 47 272
e 47 48
e 47 275
e 48 666
e 49 50
e 49 51
e 50 220
e 51 408
e 52 53
e 52 54
e 52 55
e 54 476
e 55 352
e 55 659
e 56 57
e 56 58
e 57 62
e 57 63
e 57 64
e 57 65
e 57 66
e 58 316
e 58 354
e 58 555
e 59 60
e 59 61
e 60 108
e 61 104
e 61 109
e 62 173
e 62 174
e 63 313
e 65 537
e 66 538
e 67 68
e 67 69
e 68 70
e 69 379
e 70 77
e 70 79
e 70 80
e 70 81
e 71 72
e 71 73
e 72 95
e 73 74
e 73 88
e 73 391
e 73 392
e 75 76
e 75 77
e 76 78
e 78 200
e 79 90
e 80 663
e 81 403
e 82 83
e 82 84
e 83 85
e 83 86
e 84 87
e 85 93
e 85 94
e 86 152
e 86 414
e 86 433
e 86 704
e 87 88
e 88 100
e 88 108
e 88 106
e 88 110
e 89 90
e 89 91
e 90 92
e 91 266
e 91 92
e 92 483
e 92 268
e 92 718
e 93 95
e 93 96
e 93 97
e 94 96
e 94 390
e 97 387
e 98 425
e 98 303
e 99 100
e 99 101
e 100 103
e 101 372
e 101 414
e 102 103
e 102 104
e 104 109
e 105 106
e 105 107
e 106 108
e 107 307
e 107 308
e 109 374
e 111 112
e 111 113
e 111 114
e 112 140
e 113 327
e 113 491
e 114 491
e 115 116
e 116 117
e 117 253
e 117 254
e 118 119
e 118 120
e 119 121
e 120 126
e 120 547
e 122 123
e 122 124
e 122 125
e 123 124
e 123 516
e 125 213
e 125 607
e 125 136
e 126 127
e 127 128
e 127 129
e 127 130
e 128 131
e 128 132
e 129 137
e 130 296
e 131 294
e 132 218
e 133 134
e 133 135
e 133 136
e 134 213
e 134 214
e 135 452
e 136 213
e 137 138
e 138 139
e 139 217
e 140 250
e 141 142
e 141 143
e 142 176
e 143 176
e 143 184
e 143 187
e 143 189
e 143 192
e 144 685
e 145 146
e 145 147
e 145 148
e 146 276
e 146 559
e 147 150
e 148 660
e 149 150
e 149 151
e 150 560
e 151 591
e 151 593
e 151 594
e 152 153
e 153 154
e 153 155
e 153 156
e 154 157
e 155 158
e 155 161
e 156 160
e 156 440
e 157 552
e 157 737
e 158 159
e 159 447
e 159 454
e 162 163
e 162 164
e 163 165
e 164 262
e 165 448
e 166 167
e 166 168
e 167 384
e 168 678
e 169 170
e 169 171
e 169 172
e 170 249
e 170 250
e 171 314
e 171 709
e 173 175
e 174 659
e 175 179
e 176 177
e 177 333
e 177 463
e 177 466
e 178 179
e 180 181
e 181 186
e 182 183
e 183 192
e 183 514
e 184 185
e 185 187
e 186 474
e 186 475
e 187 188
e 188 369
e 189 190
e 190 191
e 191 365
e 191 364
e 191 303
e 193 194
e 193 195
e 194 200
e 195 202
e 195 204
e 195 205
e 196 197
e 196 198
e 197 199
e 198 717
e 199 589
e 199 754
e 201 202
e 201 203
e 203 716
e 204 206
e 205 456
e 206 618
e 207 208
e 207 209
e 209 492
e 209 445
e 209 667
e 209 740
e 210 211
e 210 212
e 211 356
e 212 696
e 214 703
e 214 704
e 215 216
e 215 217
e 216 243
e 217 218
e 219 220
e 222 223
e 222 224
e 223 225
e 224 226
e 224 228
e 225 257
e 226 227
e 227 232
e 227 506
e 228 683
e 228 681
e 229 230
e 229 231
e 230 234
e 231 510
e 231 508
e 231 511
e 232 233
e 233 234
e 233 236
e 233 238
e 233 239
e 234 235
e 235 620
e 236 237
e 237 262
e 238 260
e 238 620
e 239 682
e 240 241
e 240 242
e 241 340
e 241 341
e 242 252
e 243 244
e 244 431
e 245 246
e 245 247
e 246 248
e 247 251
e 247 252
e 248 547
e 249 543
e 249 742
e 250 696
e 250 693
e 250 694
e 250 743
e 250 742
e 253 498
e 254 671
e 254 676
e 255 256
e 255 257
e 256 258
e 257 506
e 257 509
e 258 496
e 259 260
e 259 261
e 259 262
e 261 265
e 262 679
e 262 680
e 263 264
e 263 265
e 264 449
e 266 267
e 266 268
e 267 656
e 268 657
e 269 270
e 270 719
e 270 711
e 271 272
e 271 273
e 271 274
e 271 275
e 273 532
e 273 533
e 274 438
e 274 670
e 276 277
e 277 698
e 278 279
e 278 280
e 278 281
e 279 427
e 280 428
e 280 429
e 281 490
e 282 283
e 282 284
e 283 456
e 283 457
e 284 618
e 285 286
e 285 287
e 285 288
e 285 289
e 286 290
e 287 295
e 288 291
e 288 430
e 289 520
e 289 524
e 289 525
e 290 291
e 290 292
e 291 293
e 292 296
e 292 695
e 293 327
e 294 295
e 297 298
e 297 299
e 297 300
e 298 301
e 298 302
e 298 303
e 300 310
e 300 655
e 301 363
e 301 364
e 302 652
e 302 653
e 304 305
e 304 306
e 305 529
e 306 437
e 306 711
e 307 309
e 308 310
e 309 310
e 311 312
e 312 728
e 313 314
e 314 315
e 315 352
e 315 318
e 316 317
e 317 318
e 318 370
e 319 320
e 319 321
e 320 322
e 321 348
e 322 710
e 323 324
e 323 325
e 324 326
e 325 461
e 325 417
e 325 467
e 326 327
e 327 328
e 328 329
e 329 330
e 329 331
e 330 333
e 331 743
e 332 333
e 332 334
e 335 336
e 335 337
e 335 338
e 336 339
e 337 427
e 340 342
e 341 548
e 342 343
e 343 344
e 344 346
e 345 346
e 345 347
e 346 358
e 347 712
e 348 349
e 348 350
e 348 351
e 349 352
e 350 406
e 351 553
e 351 554
e 352 353
e 352 354
e 353 546
e 355 356
e 355 357
e 355 358
e 357 569
e 359 360
e 359 361
e 359 362
e 361 658
e 362 657
e 363 366
e 364 366
e 364 367
e 364 409
e 364 570
e 364 571
e 365 369
e 365 371
e 367 368
e 367 369
e 368 370
e 369 371
e 370 650
e 370 747
e 370 748
e 372 373
e 372 374
e 373 374
e 375 376
e 375 377
e 376 378
e 377 685
e 378 386
e 379 718
e 380 381
e 380 382
e 381 383
e 382 384
e 383 385
e 383 386
e 383 503
e 387 388
e 387 392
e 388 389
e 389 395
e 390 395
e 390 551
e 392 393
e 393 394
e 394 722
e 395 396
e 395 397
e 395 398
e 395 399
e 396 469
e 397 551
e 397 552
e 398 720
e 399 723
e 400 401
e 400 402
e 400 403
e 402 403
e 404 405
e 404 406
e 404 407
e 407 574
e 407 651
e 408 684
e 409 410
e 410 579
e 411 412
e 411 413
e 412 544
e 413 568
e 413 566
e 415 416
e 415 417
e 416 418
e 416 419
e 416 420
e 420 422
e 420 528
e 420 733
e 421 422
e 421 423
e 423 424
e 424 463
e 425 426
e 426 653
e 427 487
e 428 487
e 429 494
e 430 520
e 431 432
e 432 441
e 433 434
e 434 439
e 434 440
e 435 436
e 435 437
e 435 438
e 436 530
e 438 719
e 439 515
e 439 706
e 439 707
e 441 442
e 442 631
e 444 445
e 444 446
e 445 669
e 446 579
e 447 448
e 449 450
e 450 455
e 451 452
e 451 453
e 452 515
e 453 619
e 453 515
e 453 639
e 454 455
e 456 457
e 457 586
e 457 587
e 457 589
e 458 459
e 459 460
e 460 461
e 460 462
e 463 464
e 463 467
e 464 465
e 464 466
e 466 646
e 466 647
e 467 732
e 468 469
e 468 470
e 470 729
e 471 472
e 471 473
e 472 572
e 473 734
e 474 476
e 475 477
e 476 480
e 476 710
e 477 478
e 477 479
e 478 479
e 479 481
e 480 481
e 482 658
e 483 484
e 484 489
e 485 486
e 486 488
e 487 489
e 488 586
e 488 587
e 488 583
e 489 490
e 490 494
e 492 493
e 493 666
e 493 668
e 493 663
e 494 618
e 495 496
e 495 497
e 497 590
e 497 591
e 498 499
e 499 500
e 500 501
e 501 502
e 501 503
e 502 504
e 504 505
e 505 660
e 505 673
e 507 508
e 507 509
e 511 512
e 512 556
e 512 558
e 514 692
e 515 619
e 516 526
e 516 527
e 517 518
e 517 519
e 518 598
e 518 594
e 518 596
e 518 681
e 518 731
e 519 738
e 521 522
e 521 523
e 522 526
e 523 630
e 524 527
e 524 528
e 525 528
e 529 530
e 530 534
e 531 532
e 533 536
e 534 535
e 534 536
e 535 536
e 537 539
e 538 539
e 539 542
e 540 541
e 540 542
e 541 543
e 542 565
e 542 566
e 544 545
e 547 686
e 547 688
e 548 549
e 548 550
e 549 690
e 550 689
e 552 726
e 553 554
e 554 746
e 555 746
e 556 557
e 557 638
e 558 736
e 560 595
e 560 596
e 560 597
e 561 562
e 561 563
e 562 564
e 563 677
e 563 678
e 564 599
e 564 600
e 565 567
e 567 578
e 568 569
e 570 574
e 572 573
e 573 628
e 574 648
e 575 576
e 575 577
e 576 651
e 578 713
e 580 581
e 580 582
e 581 583
e 582 584
e 584 585
e 585 741
e 587 588
e 589 749
e 590 592
e 592 674
e 593 595
e 597 723
e 600 601
e 601 602
e 602 603
e 603 604
e 604 605
e 606 607
e 606 608
e 607 609
e 607 610
e 610 611
e 611 612
e 612 617
e 613 614
e 613 615
e 613 616
e 614 619
e 615 642
e 616 634
e 616 636
e 616 739
e 620 624
e 621 622
e 621 623
e 622 638
e 623 632
e 624 642
e 624 643
e 625 626
e 625 627
e 626 628
e 627 629
e 629 630
e 630 631
e 632 633
e 632 634
e 633 635
e 635 642
e 635 643
e 636 637
e 637 639
e 640 641
e 641 739
e 644 645
e 645 646
e 648 649
e 649 747
e 650 651
e 651 667
e 652 654
e 654 655
e 656 657
e 661 662
e 661 663
e 662 664
e 663 740
e 664 665
e 665 668
e 669 670
e 670 728
e 671 672
e 672 673
e 672 675
e 674 675
e 674 676
e 677 697
e 677 698
e 678 705
e 679 680
e 679 681
e 682 683
e 686 687
e 687 689
e 688 690
e 688 691
e 691 695
e 692 693
e 692 694
e 697 698
e 698 699
e 698 705
e 699 700
e 700 720
e 700 721
e 701 702
e 702 724
e 702 725
e 703 706
e 703 708
e 704 708
e 712 713
e 714 715
e 714 716
e 715 717
e 721 725
e 722 730
e 726 727
e 727 737
e 729 730
e 731 737
e 732 733
e 734 735
e 735 736
e 737 738
e 741 750
e 744 745
e 746 747
e 746 748
e 749 750
e 751 752
e 752 753
e 753 754
l 61
t 25 28
